(set-info :smt-lib-version 2.6)
(set-logic UFNIA)
(set-info :source |
Generated by: Geoff Sutcliffe
Generated on: 2026-03-11
Generator: TPTPWorld
Application: Benchmarking automated theorem provers
Time limit: 120.0

These benchmarks are translations from the TPTP Library (Thousands of
Problems for Theorem Provers), see http://www.cs.miami.edu/~tptp/

The TPTP is maintained by Geoff Sutcliffe, and he contributed this
selection of benchmarks to SMT-LIB.  They were exported from the
v9.2.1 realease of TPTP.
|)
(set-info :category "industrial")
(set-info :status "unknown")
; SZS status Success
(declare-sort $$unsorted 0)
(declare-sort tptp.uni 0)
(declare-sort tptp.ty 0)
(declare-fun tptp.sort1 (tptp.ty tptp.uni) Bool)
(declare-fun tptp.witness1 (tptp.ty) tptp.uni)
(assert (forall ((A tptp.ty)) (tptp.sort1 A (tptp.witness1 A))))
(declare-fun tptp.int () tptp.ty)
(declare-fun tptp.real () tptp.ty)
(declare-sort tptp.bool1 0)
(declare-fun tptp.bool () tptp.ty)
(declare-fun tptp.true1 () tptp.bool1)
(declare-fun tptp.false1 () tptp.bool1)
(declare-fun tptp.match_bool1 (tptp.ty tptp.bool1 tptp.uni tptp.uni) tptp.uni)
(assert (forall ((A tptp.ty) (X tptp.bool1) (X1 tptp.uni) (X2 tptp.uni)) (tptp.sort1 A (tptp.match_bool1 A X X1 X2))))
(assert (forall ((A tptp.ty) (Z tptp.uni) (Z1 tptp.uni)) (=> (tptp.sort1 A Z) (= (tptp.match_bool1 A tptp.true1 Z Z1) Z))))
(assert (forall ((A tptp.ty) (Z tptp.uni) (Z1 tptp.uni)) (=> (tptp.sort1 A Z1) (= (tptp.match_bool1 A tptp.false1 Z Z1) Z1))))
(assert (not (= tptp.true1 tptp.false1)))
(assert (forall ((U tptp.bool1)) (or (= U tptp.true1) (= U tptp.false1))))
(declare-sort tptp.tuple02 0)
(declare-fun tptp.tuple0 () tptp.ty)
(declare-fun tptp.tuple03 () tptp.tuple02)
(assert (forall ((U tptp.tuple02)) (= U tptp.tuple03)))
(declare-fun tptp.qtmark () tptp.ty)
(assert (forall ((X Int) (Y Int) (Z Int)) (=> (<= X Y) (=> (<= 0 Z) (<= (* X Z) (* Y Z))))))
(declare-fun tptp.abs1 (Int) Int)
(assert (forall ((X Int)) (let ((_let_1 (tptp.abs1 X))) (let ((_let_2 (<= 0 X))) (and (=> _let_2 (= _let_1 X)) (=> (not _let_2) (= _let_1 (- X))))))))
(assert (forall ((X Int) (Y Int)) (= (<= (tptp.abs1 X) Y) (and (<= (- Y) X) (<= X Y)))))
(assert (forall ((X Int)) (<= 0 (tptp.abs1 X))))
(declare-fun tptp.div1 (Int Int) Int)
(declare-fun tptp.mod1 (Int Int) Int)
(assert (forall ((X Int) (Y Int)) (=> (not (= Y 0)) (= X (+ (* Y (tptp.div1 X Y)) (tptp.mod1 X Y))))))
(assert (forall ((X Int) (Y Int)) (let ((_let_1 (tptp.div1 X Y))) (=> (and (<= 0 X) (< 0 Y)) (and (<= 0 _let_1) (<= _let_1 X))))))
(assert (forall ((X Int) (Y Int)) (let ((_let_1 (tptp.abs1 Y))) (let ((_let_2 (tptp.mod1 X Y))) (=> (not (= Y 0)) (and (< (- _let_1) _let_2) (< _let_2 _let_1)))))))
(assert (forall ((X Int) (Y Int)) (=> (and (<= 0 X) (< 0 Y)) (<= 0 (tptp.div1 X Y)))))
(assert (forall ((X Int) (Y Int)) (=> (and (<= X 0) (< 0 Y)) (<= (tptp.div1 X Y) 0))))
(assert (forall ((X Int) (Y Int)) (=> (and (<= 0 X) (not (= Y 0))) (<= 0 (tptp.mod1 X Y)))))
(assert (forall ((X Int) (Y Int)) (=> (and (<= X 0) (not (= Y 0))) (<= (tptp.mod1 X Y) 0))))
(assert (forall ((X Int) (Y Int)) (=> (not (= Y 0)) (<= (tptp.abs1 (* (tptp.div1 X Y) Y)) (tptp.abs1 X)))))
(assert (forall ((X Int)) (= (tptp.div1 X 1) X)))
(assert (forall ((X Int)) (= (tptp.mod1 X 1) 0)))
(assert (forall ((X Int) (Y Int)) (=> (and (<= 0 X) (< X Y)) (= (tptp.div1 X Y) 0))))
(assert (forall ((X Int) (Y Int)) (=> (and (<= 0 X) (< X Y)) (= (tptp.mod1 X Y) X))))
(assert (forall ((X Int) (Y Int) (Z Int)) (=> (and (< 0 X) (<= 0 Y) (<= 0 Z)) (= (tptp.div1 (+ (* X Y) Z) X) (+ Y (tptp.div1 Z X))))))
(assert (forall ((X Int) (Y Int) (Z Int)) (=> (and (< 0 X) (<= 0 Y) (<= 0 Z)) (= (tptp.mod1 (+ (* X Y) Z) X) (tptp.mod1 Z X)))))
(declare-fun tptp.option (tptp.ty) tptp.ty)
(declare-fun tptp.none (tptp.ty) tptp.uni)
(assert (forall ((A tptp.ty)) (tptp.sort1 (tptp.option A) (tptp.none A))))
(declare-fun tptp.some (tptp.ty tptp.uni) tptp.uni)
(assert (forall ((A tptp.ty) (X tptp.uni)) (tptp.sort1 (tptp.option A) (tptp.some A X))))
(declare-fun tptp.match_option1 (tptp.ty tptp.ty tptp.uni tptp.uni tptp.uni) tptp.uni)
(assert (forall ((A tptp.ty) (A1 tptp.ty) (X tptp.uni) (X1 tptp.uni) (X2 tptp.uni)) (tptp.sort1 A1 (tptp.match_option1 A1 A X X1 X2))))
(assert (forall ((A tptp.ty) (A1 tptp.ty) (Z tptp.uni) (Z1 tptp.uni)) (=> (tptp.sort1 A1 Z) (= (tptp.match_option1 A1 A (tptp.none A) Z Z1) Z))))
(assert (forall ((A tptp.ty) (A1 tptp.ty) (Z tptp.uni) (Z1 tptp.uni) (U tptp.uni)) (=> (tptp.sort1 A1 Z1) (= (tptp.match_option1 A1 A (tptp.some A U) Z Z1) Z1))))
(assert (forall ((A tptp.ty) (V tptp.uni)) (not (= (tptp.none A) (tptp.some A V)))))
(declare-fun tptp.some_proj_11 (tptp.ty tptp.uni) tptp.uni)
(assert (forall ((A tptp.ty) (X tptp.uni)) (tptp.sort1 A (tptp.some_proj_11 A X))))
(assert (forall ((A tptp.ty) (U tptp.uni)) (=> (tptp.sort1 A U) (= (tptp.some_proj_11 A (tptp.some A U)) U))))
(assert (forall ((A tptp.ty) (U tptp.uni)) (=> (tptp.sort1 (tptp.option A) U) (or (= U (tptp.none A)) (= U (tptp.some A (tptp.some_proj_11 A U)))))))
(declare-fun tptp.list (tptp.ty) tptp.ty)
(declare-fun tptp.nil (tptp.ty) tptp.uni)
(assert (forall ((A tptp.ty)) (tptp.sort1 (tptp.list A) (tptp.nil A))))
(declare-fun tptp.cons (tptp.ty tptp.uni tptp.uni) tptp.uni)
(assert (forall ((A tptp.ty) (X tptp.uni) (X1 tptp.uni)) (tptp.sort1 (tptp.list A) (tptp.cons A X X1))))
(declare-fun tptp.match_list1 (tptp.ty tptp.ty tptp.uni tptp.uni tptp.uni) tptp.uni)
(assert (forall ((A tptp.ty) (A1 tptp.ty) (X tptp.uni) (X1 tptp.uni) (X2 tptp.uni)) (tptp.sort1 A1 (tptp.match_list1 A1 A X X1 X2))))
(assert (forall ((A tptp.ty) (A1 tptp.ty) (Z tptp.uni) (Z1 tptp.uni)) (=> (tptp.sort1 A1 Z) (= (tptp.match_list1 A1 A (tptp.nil A) Z Z1) Z))))
(assert (forall ((A tptp.ty) (A1 tptp.ty) (Z tptp.uni) (Z1 tptp.uni) (U tptp.uni) (U1 tptp.uni)) (=> (tptp.sort1 A1 Z1) (= (tptp.match_list1 A1 A (tptp.cons A U U1) Z Z1) Z1))))
(assert (forall ((A tptp.ty) (V tptp.uni) (V1 tptp.uni)) (not (= (tptp.nil A) (tptp.cons A V V1)))))
(declare-fun tptp.cons_proj_11 (tptp.ty tptp.uni) tptp.uni)
(assert (forall ((A tptp.ty) (X tptp.uni)) (tptp.sort1 A (tptp.cons_proj_11 A X))))
(assert (forall ((A tptp.ty) (U tptp.uni) (U1 tptp.uni)) (=> (tptp.sort1 A U) (= (tptp.cons_proj_11 A (tptp.cons A U U1)) U))))
(declare-fun tptp.cons_proj_21 (tptp.ty tptp.uni) tptp.uni)
(assert (forall ((A tptp.ty) (X tptp.uni)) (tptp.sort1 (tptp.list A) (tptp.cons_proj_21 A X))))
(assert (forall ((A tptp.ty) (U tptp.uni) (U1 tptp.uni)) (= (tptp.cons_proj_21 A (tptp.cons A U U1)) U1)))
(assert (forall ((A tptp.ty) (U tptp.uni)) (or (= U (tptp.nil A)) (= U (tptp.cons A (tptp.cons_proj_11 A U) (tptp.cons_proj_21 A U))))))
(declare-fun tptp.mem (tptp.ty tptp.uni tptp.uni) Bool)
(assert (forall ((A tptp.ty) (X tptp.uni)) (=> (tptp.sort1 A X) (and (not (tptp.mem A X (tptp.nil A))) (forall ((X1 tptp.uni) (X2 tptp.uni)) (=> (tptp.sort1 A X1) (= (tptp.mem A X (tptp.cons A X1 X2)) (or (= X X1) (tptp.mem A X X2)))))))))
(declare-fun tptp.map (tptp.ty tptp.ty) tptp.ty)
(declare-fun tptp.get (tptp.ty tptp.ty tptp.uni tptp.uni) tptp.uni)
(assert (forall ((A tptp.ty) (B tptp.ty) (X tptp.uni) (X1 tptp.uni)) (tptp.sort1 B (tptp.get B A X X1))))
(declare-fun tptp.set (tptp.ty tptp.ty tptp.uni tptp.uni tptp.uni) tptp.uni)
(assert (forall ((A tptp.ty) (B tptp.ty) (X tptp.uni) (X1 tptp.uni) (X2 tptp.uni)) (tptp.sort1 (tptp.map A B) (tptp.set B A X X1 X2))))
(assert (forall ((A tptp.ty) (B tptp.ty) (M tptp.uni) (A1 tptp.uni) (A2 tptp.uni) (B1 tptp.uni)) (=> (tptp.sort1 B B1) (=> (= A1 A2) (= (tptp.get B A (tptp.set B A M A1 B1) A2) B1)))))
(assert (forall ((A tptp.ty) (B tptp.ty) (M tptp.uni) (A1 tptp.uni) (A2 tptp.uni)) (=> (tptp.sort1 A A1) (=> (tptp.sort1 A A2) (forall ((B1 tptp.uni)) (=> (not (= A1 A2)) (= (tptp.get B A (tptp.set B A M A1 B1) A2) (tptp.get B A M A2))))))))
(declare-fun tptp.const (tptp.ty tptp.ty tptp.uni) tptp.uni)
(assert (forall ((A tptp.ty) (B tptp.ty) (X tptp.uni)) (tptp.sort1 (tptp.map A B) (tptp.const B A X))))
(assert (forall ((A tptp.ty) (B tptp.ty) (B1 tptp.uni) (A1 tptp.uni)) (=> (tptp.sort1 B B1) (= (tptp.get B A (tptp.const B A B1) A1) B1))))
(declare-fun tptp.array (tptp.ty) tptp.ty)
(declare-fun tptp.mk_array1 (tptp.ty Int tptp.uni) tptp.uni)
(assert (forall ((A tptp.ty) (X Int) (X1 tptp.uni)) (tptp.sort1 (tptp.array A) (tptp.mk_array1 A X X1))))
(declare-fun tptp.length1 (tptp.ty tptp.uni) Int)
(assert (forall ((A tptp.ty) (U Int) (U1 tptp.uni)) (= (tptp.length1 A (tptp.mk_array1 A U U1)) U)))
(declare-fun tptp.elts (tptp.ty tptp.uni) tptp.uni)
(assert (forall ((A tptp.ty) (X tptp.uni)) (tptp.sort1 (tptp.map tptp.int A) (tptp.elts A X))))
(assert (forall ((A tptp.ty) (U Int) (U1 tptp.uni)) (=> (tptp.sort1 (tptp.map tptp.int A) U1) (= (tptp.elts A (tptp.mk_array1 A U U1)) U1))))
(assert (forall ((A tptp.ty) (U tptp.uni)) (= U (tptp.mk_array1 A (tptp.length1 A U) (tptp.elts A U)))))
(declare-fun tptp.get2 (tptp.ty tptp.uni Int) tptp.uni)
(assert (forall ((A tptp.ty) (X tptp.uni) (X1 Int)) (tptp.sort1 A (tptp.get2 A X X1))))
(declare-fun tptp.t2tb (Int) tptp.uni)
(assert (forall ((X Int)) (tptp.sort1 tptp.int (tptp.t2tb X))))
(declare-fun tptp.tb2t (tptp.uni) Int)
(assert (forall ((I Int)) (= (tptp.tb2t (tptp.t2tb I)) I)))
(assert (forall ((J tptp.uni)) (= (tptp.t2tb (tptp.tb2t J)) J)))
(assert (forall ((A tptp.ty) (A1 tptp.uni) (I Int)) (= (tptp.get2 A A1 I) (tptp.get A tptp.int (tptp.elts A A1) (tptp.t2tb I)))))
(declare-fun tptp.set2 (tptp.ty tptp.uni Int tptp.uni) tptp.uni)
(assert (forall ((A tptp.ty) (X tptp.uni) (X1 Int) (X2 tptp.uni)) (tptp.sort1 (tptp.array A) (tptp.set2 A X X1 X2))))
(assert (forall ((A tptp.ty) (A1 tptp.uni) (I Int) (V tptp.uni)) (= (tptp.set2 A A1 I V) (tptp.mk_array1 A (tptp.length1 A A1) (tptp.set A tptp.int (tptp.elts A A1) (tptp.t2tb I) V)))))
(declare-fun tptp.make1 (tptp.ty Int tptp.uni) tptp.uni)
(assert (forall ((A tptp.ty) (X Int) (X1 tptp.uni)) (tptp.sort1 (tptp.array A) (tptp.make1 A X X1))))
(assert (forall ((A tptp.ty) (N Int) (V tptp.uni)) (= (tptp.make1 A N V) (tptp.mk_array1 A N (tptp.const A tptp.int V)))))
(declare-sort tptp.key1 0)
(declare-fun tptp.key () tptp.ty)
(declare-fun tptp.hash1 (tptp.key1) Int)
(assert (forall ((K tptp.key1)) (<= 0 (tptp.hash1 K))))
(declare-fun tptp.bucket1 (tptp.key1 Int) Int)
(assert (forall ((K tptp.key1) (N Int)) (= (tptp.bucket1 K N) (tptp.mod1 (tptp.hash1 K) N))))
(assert (forall ((N Int)) (=> (< 0 N) (forall ((K tptp.key1)) (let ((_let_1 (tptp.bucket1 K N))) (and (<= 0 _let_1) (< _let_1 N)))))))
(declare-fun tptp.tuple2 (tptp.ty tptp.ty) tptp.ty)
(declare-fun tptp.tuple21 (tptp.ty tptp.ty tptp.uni tptp.uni) tptp.uni)
(assert (forall ((A tptp.ty) (A1 tptp.ty) (X tptp.uni) (X1 tptp.uni)) (tptp.sort1 (tptp.tuple2 A1 A) (tptp.tuple21 A1 A X X1))))
(declare-fun tptp.tuple2_proj_11 (tptp.ty tptp.ty tptp.uni) tptp.uni)
(assert (forall ((A tptp.ty) (A1 tptp.ty) (X tptp.uni)) (tptp.sort1 A1 (tptp.tuple2_proj_11 A1 A X))))
(assert (forall ((A tptp.ty) (A1 tptp.ty) (U tptp.uni) (U1 tptp.uni)) (=> (tptp.sort1 A1 U) (= (tptp.tuple2_proj_11 A1 A (tptp.tuple21 A1 A U U1)) U))))
(declare-fun tptp.tuple2_proj_21 (tptp.ty tptp.ty tptp.uni) tptp.uni)
(assert (forall ((A tptp.ty) (A1 tptp.ty) (X tptp.uni)) (tptp.sort1 A (tptp.tuple2_proj_21 A1 A X))))
(assert (forall ((A tptp.ty) (A1 tptp.ty) (U tptp.uni) (U1 tptp.uni)) (=> (tptp.sort1 A U1) (= (tptp.tuple2_proj_21 A1 A (tptp.tuple21 A1 A U U1)) U1))))
(assert (forall ((A tptp.ty) (A1 tptp.ty) (U tptp.uni)) (=> (tptp.sort1 (tptp.tuple2 A1 A) U) (= U (tptp.tuple21 A1 A (tptp.tuple2_proj_11 A1 A U) (tptp.tuple2_proj_21 A1 A U))))))
(declare-fun tptp.in_data1 (tptp.ty tptp.key1 tptp.uni tptp.uni) Bool)
(declare-fun tptp.t2tb1 (tptp.key1) tptp.uni)
(assert (forall ((X tptp.key1)) (tptp.sort1 tptp.key (tptp.t2tb1 X))))
(declare-fun tptp.tb2t1 (tptp.uni) tptp.key1)
(assert (forall ((I tptp.key1)) (= (tptp.tb2t1 (tptp.t2tb1 I)) I)))
(assert (forall ((J tptp.uni)) (=> (tptp.sort1 tptp.key J) (= (tptp.t2tb1 (tptp.tb2t1 J)) J))))
(assert (forall ((A tptp.ty) (K tptp.key1) (V tptp.uni) (D tptp.uni)) (let ((_let_1 (tptp.tuple2 tptp.key A))) (let ((_let_2 (tptp.list _let_1))) (= (tptp.in_data1 A K V D) (tptp.mem _let_1 (tptp.tuple21 tptp.key A (tptp.t2tb1 K) V) (tptp.get2 _let_2 D (tptp.bucket1 K (tptp.length1 _let_2 D)))))))))
(declare-fun tptp.good_data1 (tptp.ty tptp.key1 tptp.uni tptp.uni tptp.uni) Bool)
(assert (forall ((A tptp.ty) (K tptp.key1) (V tptp.uni) (M tptp.uni) (D tptp.uni)) (= (tptp.good_data1 A K V M D) (= (= (tptp.get (tptp.option A) tptp.key M (tptp.t2tb1 K)) (tptp.some A V)) (tptp.in_data1 A K V D)))))
(declare-fun tptp.good_hash1 (tptp.ty tptp.uni Int) Bool)
(assert (forall ((A tptp.ty) (D tptp.uni) (I Int)) (let ((_let_1 (tptp.good_hash1 A D I))) (and (=> _let_1 (forall ((K tptp.key1) (V tptp.uni)) (let ((_let_1 (tptp.tuple2 tptp.key A))) (let ((_let_2 (tptp.list _let_1))) (=> (tptp.mem _let_1 (tptp.tuple21 tptp.key A (tptp.t2tb1 K) V) (tptp.get2 _let_2 D I)) (= (tptp.bucket1 K (tptp.length1 _let_2 D)) I)))))) (=> (forall ((K tptp.key1) (V tptp.uni)) (let ((_let_1 (tptp.tuple2 tptp.key A))) (let ((_let_2 (tptp.list _let_1))) (=> (tptp.sort1 A V) (=> (tptp.mem _let_1 (tptp.tuple21 tptp.key A (tptp.t2tb1 K) V) (tptp.get2 _let_2 D I)) (= (tptp.bucket1 K (tptp.length1 _let_2 D)) I)))))) _let_1)))))
(declare-fun tptp.t (tptp.ty) tptp.ty)
(declare-fun tptp.mk_t1 (tptp.ty Int tptp.uni tptp.uni) tptp.uni)
(assert (forall ((A tptp.ty) (X Int) (X1 tptp.uni) (X2 tptp.uni)) (tptp.sort1 (tptp.t A) (tptp.mk_t1 A X X1 X2))))
(declare-fun tptp.size1 (tptp.ty tptp.uni) Int)
(assert (forall ((A tptp.ty) (U Int) (U1 tptp.uni) (U2 tptp.uni)) (= (tptp.size1 A (tptp.mk_t1 A U U1 U2)) U)))
(declare-fun tptp.data (tptp.ty tptp.uni) tptp.uni)
(assert (forall ((A tptp.ty) (X tptp.uni)) (tptp.sort1 (tptp.array (tptp.list (tptp.tuple2 tptp.key A))) (tptp.data A X))))
(assert (forall ((A tptp.ty) (U Int) (U1 tptp.uni) (U2 tptp.uni)) (= (tptp.data A (tptp.mk_t1 A U U1 U2)) U1)))
(declare-fun tptp.view (tptp.ty tptp.uni) tptp.uni)
(assert (forall ((A tptp.ty) (X tptp.uni)) (tptp.sort1 (tptp.map tptp.key (tptp.option A)) (tptp.view A X))))
(assert (forall ((A tptp.ty) (U Int) (U1 tptp.uni) (U2 tptp.uni)) (=> (tptp.sort1 (tptp.map tptp.key (tptp.option A)) U2) (= (tptp.view A (tptp.mk_t1 A U U1 U2)) U2))))
(assert (forall ((A tptp.ty) (U tptp.uni)) (= U (tptp.mk_t1 A (tptp.size1 A U) (tptp.data A U) (tptp.view A U)))))
(declare-sort tptp.a1 0)
(declare-fun tptp.a () tptp.ty)
(declare-sort tptp.map_int_lplist_lpkeycm_a1rprp 0)
(declare-fun tptp.t2tb2 (tptp.map_int_lplist_lpkeycm_a1rprp) tptp.uni)
(assert (forall ((X tptp.map_int_lplist_lpkeycm_a1rprp)) (tptp.sort1 (tptp.map tptp.int (tptp.list (tptp.tuple2 tptp.key tptp.a))) (tptp.t2tb2 X))))
(declare-fun tptp.tb2t2 (tptp.uni) tptp.map_int_lplist_lpkeycm_a1rprp)
(assert (forall ((I tptp.map_int_lplist_lpkeycm_a1rprp)) (= (tptp.tb2t2 (tptp.t2tb2 I)) I)))
(assert (forall ((J tptp.uni)) (= (tptp.t2tb2 (tptp.tb2t2 J)) J)))
(declare-sort tptp.map_key_lpoption_a1rp 0)
(declare-fun tptp.t2tb3 (tptp.map_key_lpoption_a1rp) tptp.uni)
(assert (forall ((X tptp.map_key_lpoption_a1rp)) (tptp.sort1 (tptp.map tptp.key (tptp.option tptp.a)) (tptp.t2tb3 X))))
(declare-fun tptp.tb2t3 (tptp.uni) tptp.map_key_lpoption_a1rp)
(assert (forall ((I tptp.map_key_lpoption_a1rp)) (= (tptp.tb2t3 (tptp.t2tb3 I)) I)))
(assert (forall ((J tptp.uni)) (=> (tptp.sort1 (tptp.map tptp.key (tptp.option tptp.a)) J) (= (tptp.t2tb3 (tptp.tb2t3 J)) J))))
(declare-sort tptp.option_a1 0)
(declare-fun tptp.t2tb4 (tptp.option_a1) tptp.uni)
(assert (forall ((X tptp.option_a1)) (tptp.sort1 (tptp.option tptp.a) (tptp.t2tb4 X))))
(declare-fun tptp.tb2t4 (tptp.uni) tptp.option_a1)
(assert (forall ((I tptp.option_a1)) (= (tptp.tb2t4 (tptp.t2tb4 I)) I)))
(assert (forall ((J tptp.uni)) (=> (tptp.sort1 (tptp.option tptp.a) J) (= (tptp.t2tb4 (tptp.tb2t4 J)) J))))
(declare-sort tptp.array_lplist_lpkeycm_a1rprp 0)
(declare-fun tptp.t2tb5 (tptp.array_lplist_lpkeycm_a1rprp) tptp.uni)
(assert (forall ((X tptp.array_lplist_lpkeycm_a1rprp)) (tptp.sort1 (tptp.array (tptp.list (tptp.tuple2 tptp.key tptp.a))) (tptp.t2tb5 X))))
(declare-fun tptp.tb2t5 (tptp.uni) tptp.array_lplist_lpkeycm_a1rprp)
(assert (forall ((I tptp.array_lplist_lpkeycm_a1rprp)) (= (tptp.tb2t5 (tptp.t2tb5 I)) I)))
(assert (forall ((J tptp.uni)) (= (tptp.t2tb5 (tptp.tb2t5 J)) J)))
(declare-sort tptp.list_lpkeycm_a1rp 0)
(declare-fun tptp.t2tb6 (tptp.list_lpkeycm_a1rp) tptp.uni)
(assert (forall ((X tptp.list_lpkeycm_a1rp)) (tptp.sort1 (tptp.list (tptp.tuple2 tptp.key tptp.a)) (tptp.t2tb6 X))))
(declare-fun tptp.tb2t6 (tptp.uni) tptp.list_lpkeycm_a1rp)
(assert (forall ((I tptp.list_lpkeycm_a1rp)) (= (tptp.tb2t6 (tptp.t2tb6 I)) I)))
(assert (forall ((J tptp.uni)) (= (tptp.t2tb6 (tptp.tb2t6 J)) J)))
(declare-sort tptp.lpkeycm_a1rp 0)
(declare-fun tptp.t2tb8 (tptp.lpkeycm_a1rp) tptp.uni)
(assert (forall ((X tptp.lpkeycm_a1rp)) (tptp.sort1 (tptp.tuple2 tptp.key tptp.a) (tptp.t2tb8 X))))
(declare-fun tptp.tb2t8 (tptp.uni) tptp.lpkeycm_a1rp)
(assert (forall ((I tptp.lpkeycm_a1rp)) (= (tptp.tb2t8 (tptp.t2tb8 I)) I)))
(assert (forall ((J tptp.uni)) (=> (tptp.sort1 (tptp.tuple2 tptp.key tptp.a) J) (= (tptp.t2tb8 (tptp.tb2t8 J)) J))))
(declare-fun tptp.t2tb7 (tptp.a1) tptp.uni)
(assert (forall ((X tptp.a1)) (tptp.sort1 tptp.a (tptp.t2tb7 X))))
(declare-fun tptp.tb2t7 (tptp.uni) tptp.a1)
(assert (forall ((I tptp.a1)) (= (tptp.tb2t7 (tptp.t2tb7 I)) I)))
(assert (forall ((J tptp.uni)) (=> (tptp.sort1 tptp.a J) (= (tptp.t2tb7 (tptp.tb2t7 J)) J))))
(assert (not (forall ((H Int) (H1 tptp.map_int_lplist_lpkeycm_a1rprp) (H2 tptp.map_key_lpoption_a1rp)) (let ((_let_1 (<= 0 (+ (* 2 H) 1)))) (=> (and (< 0 H) (forall ((I Int)) (=> (and (<= 0 I) (< I H)) (tptp.good_hash1 tptp.a (tptp.mk_array1 (tptp.list (tptp.tuple2 tptp.key tptp.a)) H (tptp.t2tb2 H1)) I))) (forall ((K tptp.key1) (V tptp.a1)) (tptp.good_data1 tptp.a K (tptp.t2tb7 V) (tptp.t2tb3 H2) (tptp.mk_array1 (tptp.list (tptp.tuple2 tptp.key tptp.a)) H (tptp.t2tb2 H1)))) (<= 0 H)) (=> _let_1 (=> _let_1 (forall ((I Int) (L tptp.list_lpkeycm_a1rp) (Ndata tptp.map_int_lplist_lpkeycm_a1rprp) (Rho tptp.map_key_lpoption_a1rp) (Rho1 Int) (Rho2 tptp.map_int_lplist_lpkeycm_a1rprp)) (=> (and (< 0 Rho1) (forall ((I1 Int)) (=> (and (<= 0 I1) (< I1 Rho1)) (tptp.good_hash1 tptp.a (tptp.mk_array1 (tptp.list (tptp.tuple2 tptp.key tptp.a)) Rho1 (tptp.t2tb2 Rho2)) I1))) (forall ((K tptp.key1) (V tptp.a1)) (tptp.good_data1 tptp.a K (tptp.t2tb7 V) (tptp.t2tb3 Rho) (tptp.mk_array1 (tptp.list (tptp.tuple2 tptp.key tptp.a)) Rho1 (tptp.t2tb2 Rho2)))) (<= 0 Rho1) (<= 0 (+ (* 2 H) 1)) (forall ((K tptp.key1) (V tptp.a1)) (=> (tptp.mem (tptp.tuple2 tptp.key tptp.a) (tptp.tuple21 tptp.key tptp.a (tptp.t2tb1 K) (tptp.t2tb7 V)) (tptp.t2tb6 L)) (= (tptp.bucket1 K H) I))) (forall ((J Int)) (let ((_let_1 (+ (* 2 H) 1))) (=> (and (<= 0 J) (< J _let_1)) (tptp.good_hash1 tptp.a (tptp.mk_array1 (tptp.list (tptp.tuple2 tptp.key tptp.a)) _let_1 (tptp.t2tb2 Ndata)) J)))) (forall ((K tptp.key1) (V tptp.a1)) (let ((_let_1 (tptp.tuple2 tptp.key tptp.a))) (let ((_let_2 (tptp.mk_array1 (tptp.list _let_1) (+ (* 2 H) 1) (tptp.t2tb2 Ndata)))) (let ((_let_3 (tptp.t2tb7 V))) (let ((_let_4 (tptp.in_data1 tptp.a K _let_3 _let_2))) (let ((_let_5 (tptp.bucket1 K H))) (let ((_let_6 (= _let_5 I))) (let ((_let_7 (tptp.t2tb1 K))) (let ((_let_8 (tptp.t2tb3 Rho))) (let ((_let_9 (< _let_5 I))) (let ((_let_10 (<= 0 _let_5))) (or (and _let_10 _let_9 (tptp.good_data1 tptp.a K _let_3 _let_8 _let_2)) (and (not (and _let_10 _let_9)) (or (and _let_6 (= (= (tptp.tb2t4 (tptp.get (tptp.option tptp.a) tptp.key _let_8 _let_7)) (tptp.tb2t4 (tptp.some tptp.a _let_3))) (or (tptp.mem _let_1 (tptp.tuple21 tptp.key tptp.a _let_7 _let_3) (tptp.t2tb6 L)) _let_4))) (and (not _let_6) (not _let_4))))))))))))))))) (=> (= L (tptp.tb2t6 (tptp.nil (tptp.tuple2 tptp.key tptp.a)))) (forall ((K tptp.key1) (V tptp.a1)) (let ((_let_1 (tptp.mk_array1 (tptp.list (tptp.tuple2 tptp.key tptp.a)) (+ (* 2 H) 1) (tptp.t2tb2 Ndata)))) (let ((_let_2 (tptp.t2tb7 V))) (let ((_let_3 (tptp.bucket1 K H))) (let ((_let_4 (and (<= 0 _let_3) (<= _let_3 I)))) (and (=> _let_4 (tptp.good_data1 tptp.a K _let_2 (tptp.t2tb3 Rho) _let_1)) (=> (not _let_4) (not (tptp.in_data1 tptp.a K _let_2 _let_1)))))))))))))))))))
(check-sat)
